n = 25
m = 20
c = 10

problem 1
---------
0  0  0  0  1  0  0  0  0  0  0  0  1  0  0  0  0  0  1  0  0  0  0  0  0  
0  0  0  0  0  0  0  1  1  0  0  0  1  0  0  1  0  0  1  0  0  0  0  1  0  
0  0  1  0  0  0  0  0  0  0  0  0  0  0  0  0  0  1  0  0  0  0  1  0  0  
0  0  1  0  1  0  0  0  0  1  0  0  0  0  0  0  0  1  0  0  0  0  0  0  0  
0  0  1  1  0  0  0  0  0  0  1  1  0  0  1  1  0  0  0  0  0  1  0  0  1  
0  0  0  0  0  0  0  0  1  0  1  0  0  0  1  0  0  0  0  0  0  0  0  0  0  
0  1  0  0  0  0  0  0  0  0  0  0  0  0  0  0  0  0  0  0  0  0  0  1  0  
0  0  0  0  1  0  0  0  0  1  1  0  0  0  0  0  1  0  0  0  0  0  0  1  0  
0  0  0  0  0  0  1  0  0  0  0  1  0  1  0  0  0  0  0  0  0  0  0  0  1  
0  0  0  1  0  0  0  0  0  0  0  1  0  0  1  0  1  1  0  0  1  0  1  0  0  
0  0  0  1  1  0  0  0  0  0  0  0  0  0  0  0  0  0  0  0  0  0  0  1  0  
0  0  0  0  0  1  0  0  0  0  0  0  0  1  0  0  0  0  0  1  0  1  0  0  0  
1  1  0  0  0  0  0  0  0  1  1  0  0  0  0  0  0  0  0  1  0  0  1  0  1  
0  0  0  0  0  1  0  0  1  0  1  0  0  0  0  0  0  0  1  1  0  1  0  0  0  
1  1  0  0  0  0  1  0  0  1  0  1  0  1  0  1  0  1  0  1  0  0  0  0  0  
0  0  0  0  0  1  0  0  0  0  0  0  1  0  0  0  0  1  1  0  0  0  0  1  1  
1  0  0  0  1  0  0  0  0  0  0  0  1  0  0  1  0  0  0  0  0  0  1  0  0  
1  0  0  0  0  0  0  1  0  0  0  0  0  0  0  0  0  0  0  1  1  0  0  0  0  
0  0  0  0  0  0  0  0  0  0  0  0  0  0  0  0  1  0  0  0  0  0  1  0  0  
1  1  0  0  0  0  1  0  1  1  0  0  1  0  0  0  0  0  0  0  0  1  0  0  1  
problem 2
---------
0  0  0  0  0  0  0  0  0  0  0  0  0  0  0  0  0  0  0  1  0  0  1  0  0  
0  0  0  0  0  0  0  1  0  1  0  0  0  0  1  0  0  1  0  0  0  1  0  0  0  
0  0  0  0  0  0  0  0  0  1  0  1  0  0  0  0  0  0  1  0  0  0  1  0  0  
0  0  0  0  0  0  0  0  0  0  0  0  0  0  1  1  0  0  0  0  0  0  1  0  0  
0  0  0  0  0  1  0  0  0  0  1  0  1  0  0  0  0  0  0  0  0  0  0  0  0  
0  1  0  0  0  1  1  0  0  0  0  0  0  0  1  0  1  0  0  0  1  0  0  0  0  
0  1  0  0  0  0  0  0  0  0  0  0  0  0  0  0  0  0  1  0  0  0  0  0  0  
0  0  1  0  1  0  0  0  0  1  0  0  0  0  0  0  1  0  0  1  0  0  0  0  0  
1  0  0  0  0  0  1  1  0  0  0  0  0  0  1  0  0  0  0  0  0  0  0  0  0  
1  0  0  0  0  0  0  0  1  1  0  0  0  0  0  0  0  0  0  0  1  0  0  0  1  
0  0  1  0  0  1  1  0  1  0  0  1  1  1  0  0  0  0  0  0  1  0  0  0  0  
1  0  0  1  0  1  0  0  0  0  0  0  0  0  0  1  0  0  0  0  0  0  0  0  1  
0  0  0  0  0  0  0  0  0  0  0  0  0  0  0  0  0  1  0  0  1  0  0  1  1  
0  0  0  0  1  1  0  0  1  1  0  0  0  0  0  0  0  0  1  0  0  0  0  1  0  
0  1  1  1  1  0  0  0  0  0  0  0  0  1  0  0  0  0  0  0  0  0  0  0  0  
0  0  0  0  0  0  0  0  0  0  0  0  0  0  0  0  0  1  0  1  0  1  1  0  0  
1  0  0  0  0  0  0  0  0  0  1  0  0  1  0  0  0  0  1  1  0  1  0  1  0  
0  0  0  0  0  0  0  1  0  0  0  0  1  1  0  0  0  0  0  0  1  0  0  0  0  
0  1  0  0  1  0  1  0  1  0  0  0  0  0  0  0  0  0  0  0  0  0  0  0  0  
0  1  0  0  0  0  0  1  0  0  1  0  1  0  0  1  0  0  1  0  0  0  1  0  0  
problem 3
---------
0  0  0  0  0  0  0  0  1  0  0  0  0  0  0  0  0  0  1  0  0  1  0  0  0  
0  1  0  0  0  1  0  1  0  0  0  0  0  0  0  0  0  1  0  0  0  0  0  0  0  
0  0  0  0  0  0  0  0  0  0  0  0  0  0  0  1  0  0  0  0  0  1  0  0  1  
0  0  0  0  0  0  0  1  1  0  0  0  1  0  0  0  0  0  0  1  0  0  0  0  0  
0  0  0  1  0  0  0  0  0  0  1  1  0  1  1  0  0  0  0  1  0  1  0  0  1  
0  0  1  1  1  0  0  0  1  1  0  0  0  0  0  0  0  0  0  0  0  0  0  0  0  
0  1  0  0  0  0  0  0  0  0  0  0  0  0  0  0  0  0  0  0  0  0  0  1  1  
0  1  0  0  0  0  0  0  0  0  0  0  0  0  1  0  0  0  1  0  0  0  0  1  0  
1  0  0  0  0  0  0  0  0  1  0  1  0  0  0  0  1  0  0  0  0  0  0  0  1  
0  0  1  0  0  0  1  0  0  0  0  0  0  0  0  0  1  1  0  0  0  0  0  0  0  
0  0  1  0  0  0  0  0  0  1  0  0  0  0  0  0  0  0  0  1  0  1  0  0  0  
0  1  0  0  0  0  0  0  0  0  0  0  1  0  0  0  0  1  0  0  0  1  0  0  0  
1  0  0  1  0  0  0  0  0  0  0  0  1  0  0  0  0  0  0  0  1  0  0  0  0  
0  0  0  0  1  0  1  0  0  1  0  1  0  0  0  1  0  1  1  0  0  0  0  0  0  
0  0  0  0  1  0  0  0  0  0  1  0  0  0  0  0  0  0  0  0  0  0  1  0  0  
0  0  0  0  0  0  1  0  1  0  0  0  0  1  0  0  0  0  0  0  0  0  0  0  0  
0  0  0  0  0  0  0  0  0  0  0  1  0  0  0  0  0  0  0  0  1  0  0  0  1  
0  0  0  0  1  0  0  0  0  0  0  0  0  0  0  1  0  0  0  0  0  0  0  0  0  
1  0  0  0  0  0  0  0  1  0  0  0  0  0  1  0  0  1  0  0  0  0  0  1  0  
0  0  1  0  0  1  0  0  0  0  0  1  0  0  0  0  0  0  0  0  0  0  1  1  0  
problem 4
---------
0  0  0  0  0  0  0  0  1  0  1  0  0  0  0  1  0  0  0  0  0  0  1  0  1  
0  0  0  0  0  0  0  1  0  1  0  0  0  0  0  0  0  0  0  0  0  1  0  0  0  
0  0  0  0  0  0  0  1  0  0  0  0  1  0  0  0  1  0  0  0  0  1  0  0  0  
0  0  1  0  0  1  0  0  0  0  0  0  0  0  0  0  0  1  0  0  0  0  0  1  0  
0  0  1  0  0  1  1  0  0  1  0  1  0  0  0  0  1  0  0  0  1  0  0  1  0  
0  0  0  0  0  0  0  1  1  0  0  0  0  0  0  0  1  0  0  0  0  0  0  0  0  
0  0  0  0  0  0  0  0  0  0  0  1  1  0  0  0  0  1  1  0  0  0  0  0  0  
0  0  0  0  0  0  0  0  0  0  0  1  0  1  0  1  0  0  0  1  0  0  0  1  0  
1  0  0  0  1  0  0  1  0  0  0  0  1  0  0  0  0  0  0  0  1  0  1  0  1  
0  0  0  1  0  0  1  0  0  0  1  0  0  0  0  0  0  0  0  1  1  0  1  0  0  
0  0  1  0  0  1  0  0  0  0  0  0  1  0  1  0  0  0  1  0  0  0  1  0  1  
0  0  0  0  0  0  1  0  1  0  0  1  0  0  0  1  0  0  0  1  0  0  0  0  0  
1  0  0  0  0  1  0  0  0  0  1  0  1  0  0  0  1  0  0  0  1  0  0  0  1  
0  1  1  0  0  0  0  0  0  0  0  0  0  1  0  0  0  0  0  0  0  0  0  0  0  
0  0  0  0  0  0  0  0  1  0  0  0  0  0  1  0  0  1  0  0  0  0  0  0  1  
0  0  1  0  0  0  1  0  0  0  0  0  0  0  0  0  0  1  0  0  1  0  0  0  0  
1  0  0  0  0  0  1  0  0  0  0  0  0  0  0  0  0  0  0  0  0  0  0  0  0  
0  0  0  0  1  0  0  0  1  0  0  0  0  0  1  0  0  0  0  0  0  1  0  0  0  
0  0  0  0  0  0  0  0  0  0  0  1  0  0  0  0  0  1  0  0  0  0  0  0  0  
0  1  0  1  0  0  0  0  0  0  0  0  0  0  0  0  0  0  1  0  0  0  0  0  0  
problem 5
---------
0  0  0  0  0  0  0  1  0  0  0  1  0  0  0  0  0  0  1  0  1  0  0  0  0  
0  0  0  0  0  0  0  0  0  0  0  0  0  0  0  0  0  0  0  0  1  0  0  0  1  
0  1  0  0  0  0  1  0  0  0  1  0  0  0  0  0  0  0  0  0  0  0  0  0  0  
0  0  0  0  0  0  0  1  0  1  0  0  1  0  0  1  0  0  0  0  0  0  0  0  0  
0  0  0  0  0  1  1  1  0  0  0  0  1  0  0  0  0  0  0  0  0  0  0  0  0  
1  0  0  1  0  0  0  0  0  1  0  1  0  0  0  0  0  1  0  0  0  0  1  0  0  
0  0  0  0  0  0  1  1  0  0  0  0  0  0  0  0  0  0  0  0  0  0  0  0  0  
0  1  1  1  1  0  0  0  1  0  1  0  0  0  0  0  0  0  0  0  0  0  1  0  0  
0  0  0  1  1  0  0  0  1  0  0  1  0  0  1  0  1  0  0  0  0  0  0  0  0  
0  0  0  0  0  1  0  0  0  0  0  0  0  0  1  0  0  0  0  0  0  0  0  0  0  
0  0  0  0  0  0  0  0  1  0  1  1  0  0  1  1  0  0  0  0  0  1  0  0  0  
0  1  0  0  1  0  0  0  0  0  0  0  0  0  0  0  0  0  0  0  0  0  0  1  0  
1  0  0  0  0  0  1  0  0  0  0  0  0  0  0  0  0  0  0  0  0  0  0  1  0  
0  0  1  0  0  0  0  0  0  1  0  0  1  1  0  0  0  0  1  0  0  1  0  0  0  
0  0  0  1  0  0  0  0  0  0  0  0  0  0  0  0  0  1  0  0  0  0  0  0  0  
0  1  1  0  0  1  1  0  0  0  0  0  0  1  0  0  1  1  1  0  0  0  1  1  1  
0  1  0  0  0  0  0  0  0  0  0  0  0  0  1  0  0  1  1  0  0  0  0  1  1  
0  0  0  0  0  1  0  0  1  0  0  0  0  0  0  0  0  0  1  1  0  0  0  0  1  
0  0  0  0  0  0  0  0  0  0  1  1  0  0  1  0  1  0  0  1  1  1  1  0  0  
0  0  0  0  0  0  0  0  0  0  1  0  0  1  0  0  0  0  0  1  0  0  0  0  0  
problem 6
---------
0  0  1  0  0  1  0  1  0  0  0  1  0  0  0  1  0  0  1  0  1  0  0  1  0  
1  0  1  0  0  0  0  0  0  0  0  0  0  0  1  1  1  1  0  0  0  0  1  0  0  
1  0  0  1  1  0  0  0  1  1  0  0  0  1  1  0  0  0  0  0  1  0  0  0  0  
0  0  0  0  0  0  0  0  0  0  0  0  1  1  0  0  0  0  0  0  0  1  0  0  1  
0  1  0  0  0  0  0  0  1  0  0  0  0  0  0  1  1  0  0  1  0  0  0  0  0  
1  0  1  0  0  0  0  1  0  0  1  1  0  0  0  0  0  1  0  0  0  1  0  1  0  
0  0  0  0  1  0  0  0  0  0  0  0  0  0  0  1  0  1  0  0  0  0  0  1  0  
0  0  0  0  0  1  0  0  0  1  0  0  0  0  1  0  0  0  1  0  0  0  0  0  0  
0  1  1  1  0  0  0  1  0  0  0  0  0  0  1  0  0  0  1  0  0  1  0  0  0  
0  0  0  0  0  1  1  0  0  0  0  0  0  0  1  0  0  0  0  1  1  0  0  0  1  
0  0  0  0  0  0  0  1  0  1  0  0  0  0  0  0  0  0  0  1  0  0  1  0  1  
0  0  0  1  0  0  0  0  0  0  0  0  0  0  0  0  0  1  0  0  0  0  0  0  0  
0  0  0  0  0  0  1  0  0  0  0  1  0  1  0  0  0  0  0  1  0  0  0  0  0  
0  0  0  0  1  0  0  0  1  0  0  1  1  0  0  0  1  0  0  0  0  0  0  1  0  
0  0  0  0  0  0  0  0  0  0  0  0  0  1  0  0  0  0  1  0  0  0  0  0  1  
0  0  1  0  0  0  0  0  0  0  0  0  0  0  0  0  1  0  0  1  0  0  0  0  0  
1  0  0  0  0  0  0  0  0  0  1  0  0  0  0  0  0  0  0  0  0  0  0  0  0  
0  0  0  1  0  0  1  0  0  0  0  0  1  0  0  0  0  0  0  0  0  0  0  1  0  
1  0  0  0  0  0  1  0  0  1  0  0  0  0  0  0  1  0  1  0  1  0  0  0  1  
0  0  0  0  0  0  0  0  0  0  1  0  0  0  0  0  0  0  0  0  0  0  0  0  0  
problem 7
---------
0  0  0  0  0  0  0  0  0  0  1  0  0  1  0  0  0  1  0  1  0  1  0  0  0  
0  0  0  0  0  0  0  0  0  0  0  0  0  0  0  0  0  0  0  0  1  0  0  0  0  
1  0  0  0  0  0  0  0  0  0  0  0  0  0  1  0  0  0  0  1  0  0  1  0  0  
0  0  0  0  0  0  1  0  0  0  0  0  0  0  0  0  0  0  1  0  0  0  1  0  1  
0  0  1  0  0  0  1  1  0  0  0  0  0  0  0  0  0  0  0  0  0  0  0  0  0  
0  0  1  0  0  0  0  0  0  1  0  0  0  1  1  0  1  1  0  0  0  1  0  0  0  
0  0  1  0  0  1  0  0  0  0  0  0  0  0  0  0  0  0  0  0  0  0  0  0  0  
0  0  1  0  1  0  0  1  0  0  0  0  0  0  0  0  0  0  0  0  0  0  0  0  0  
1  0  0  1  0  0  1  0  1  0  0  0  0  0  0  0  0  0  0  0  0  0  0  0  1  
0  0  0  0  0  1  0  1  0  0  0  0  0  1  0  1  0  0  0  0  1  1  0  0  0  
0  0  0  0  1  0  0  0  0  0  1  0  0  1  0  0  0  1  0  0  0  0  0  0  0  
0  1  0  0  0  0  0  0  0  1  0  0  1  0  0  0  0  0  0  0  0  0  0  1  0  
0  0  0  0  1  0  0  0  0  0  0  1  0  0  1  1  1  1  0  0  0  0  0  0  0  
1  0  0  0  1  0  0  0  0  0  0  0  0  0  0  0  0  0  0  0  0  0  0  0  0  
1  0  0  0  0  0  0  0  0  0  0  1  0  0  0  0  0  0  0  0  0  0  0  1  1  
0  0  0  0  0  1  0  0  0  0  0  0  1  1  0  0  0  0  1  0  0  0  0  0  0  
0  1  0  1  0  1  0  0  0  0  0  1  0  0  0  0  1  0  0  0  0  0  1  0  0  
0  1  0  0  0  0  0  0  1  0  0  0  0  0  0  0  1  1  0  0  0  0  0  0  0  
0  0  1  0  0  0  0  0  1  1  1  0  0  0  1  0  0  0  0  1  0  1  0  0  1  
0  0  0  0  1  0  0  0  1  0  0  0  1  0  0  0  1  0  0  0  0  0  0  0  0  
problem 8
---------
0  0  0  0  0  0  0  0  0  0  1  0  0  0  1  0  1  0  0  1  0  0  1  0  0  
0  0  0  0  0  0  0  0  1  0  0  0  0  0  0  1  0  0  1  0  1  0  1  0  1  
1  0  0  0  1  0  0  1  0  0  0  0  0  0  1  0  0  0  0  1  1  0  0  1  0  
1  1  0  1  1  0  0  1  1  0  0  1  0  0  1  0  0  0  0  0  0  0  0  0  1  
0  0  1  0  1  0  0  0  0  0  1  0  0  0  0  0  0  0  1  0  0  0  0  1  0  
0  0  0  0  1  0  0  0  0  0  0  0  0  0  0  0  1  1  0  0  1  0  0  0  0  
0  0  0  0  0  0  1  0  1  0  0  0  0  0  0  0  0  0  0  1  0  0  1  0  0  
0  0  0  0  0  0  0  0  0  0  0  0  0  1  0  0  0  1  0  0  0  0  0  0  1  
0  0  1  0  0  0  0  0  1  0  0  0  0  0  0  0  0  0  0  0  0  0  0  0  0  
0  0  1  0  0  0  0  0  0  0  0  0  0  0  0  0  0  1  0  0  0  0  0  1  0  
0  1  0  0  0  0  1  1  0  0  0  0  0  0  1  1  0  0  0  0  0  1  0  0  0  
0  0  0  1  0  0  0  0  1  0  0  0  1  1  0  0  0  0  0  0  0  1  1  0  0  
0  0  0  0  0  1  0  0  0  0  0  0  0  0  0  0  0  0  0  0  0  1  0  0  0  
0  0  0  0  0  0  0  0  0  1  0  1  0  0  0  0  0  0  0  0  1  1  0  0  0  
0  0  0  1  0  1  0  1  0  0  1  0  0  0  0  0  0  0  0  0  0  0  0  0  0  
1  0  1  1  0  0  0  1  0  1  0  0  0  0  0  0  0  0  0  0  0  0  1  0  0  
0  0  1  0  0  0  0  0  0  0  0  1  1  0  0  0  0  0  0  0  0  0  0  0  1  
1  0  0  0  0  0  0  0  0  0  0  1  0  0  1  1  0  0  1  1  0  0  0  0  0  
0  0  0  0  1  0  0  0  0  0  1  1  0  0  0  0  1  0  0  0  0  1  0  1  0  
0  1  0  0  0  0  0  0  0  0  0  0  0  0  0  0  0  0  0  1  0  0  0  0  0  
problem 9
---------
0  0  1  1  0  0  0  0  0  0  0  0  0  1  0  1  0  1  0  1  0  0  1  0  0  
0  1  0  0  0  0  0  0  0  0  0  1  0  1  1  0  0  0  0  0  0  0  0  0  0  
1  1  0  1  0  0  0  1  0  0  1  0  0  0  0  0  0  0  0  0  1  0  0  1  0  
0  0  1  0  0  1  1  1  0  0  0  0  0  0  0  0  0  0  0  0  1  0  0  0  0  
0  0  0  0  0  0  0  0  0  0  0  0  0  0  0  0  0  0  0  0  0  0  0  0  1  
0  0  0  0  0  0  1  1  0  0  0  0  1  1  0  0  0  0  0  1  0  0  0  0  0  
0  0  1  0  0  0  0  0  1  0  0  0  1  1  1  0  0  0  0  0  0  1  0  0  0  
0  1  0  0  1  0  1  0  1  0  1  0  0  0  0  0  0  0  1  0  0  0  0  0  0  
0  0  0  1  0  0  1  0  0  0  0  0  0  0  0  0  0  0  0  0  0  1  0  1  0  
0  0  0  0  0  0  0  0  0  0  1  1  0  0  0  0  0  0  0  1  0  0  0  0  0  
0  0  0  0  0  0  0  0  0  0  0  1  0  0  0  0  1  0  0  0  1  0  0  0  0  
0  0  1  0  0  1  0  0  0  1  0  0  0  0  0  0  1  0  0  0  0  0  0  0  0  
1  0  0  0  0  0  0  0  0  0  0  0  0  0  1  1  0  0  1  0  0  0  1  0  1  
1  0  1  0  1  1  0  0  0  0  1  0  1  0  0  1  0  0  0  0  1  0  0  0  0  
0  0  0  0  0  0  0  0  1  1  0  1  0  1  1  0  0  1  0  0  1  1  0  0  0  
0  0  0  0  0  1  0  1  0  0  0  0  0  0  1  0  0  0  0  0  0  0  1  0  0  
0  0  0  0  1  0  0  0  1  0  0  0  0  0  0  0  1  0  1  0  0  0  0  0  0  
0  0  0  0  1  0  0  0  0  0  0  0  1  0  0  0  0  0  0  0  0  1  0  0  0  
0  0  0  0  1  1  0  0  0  1  0  0  0  0  0  0  1  1  0  1  0  0  0  1  0  
0  0  0  1  0  0  1  0  0  0  0  0  1  0  0  1  0  1  1  0  0  1  0  1  0  
problem 10
---------
0  0  0  0  0  0  0  0  0  0  0  0  1  0  0  1  0  0  0  0  1  0  0  0  0  
0  0  0  0  0  0  1  0  0  0  1  0  0  0  0  0  0  0  1  0  0  0  1  0  0  
0  0  0  0  1  0  0  0  0  0  0  0  0  0  0  0  1  0  0  0  0  0  0  0  1  
0  0  1  0  0  0  1  1  0  0  1  0  0  0  0  1  0  0  0  0  0  0  1  0  0  
0  1  0  0  0  0  0  0  0  0  0  0  0  0  0  0  0  1  0  0  1  0  0  0  0  
0  0  0  0  1  0  0  0  0  1  0  0  0  0  1  0  0  0  0  0  1  0  1  0  0  
0  0  0  0  0  1  0  0  0  0  0  0  1  0  0  1  0  0  1  0  0  0  0  1  0  
0  0  0  0  0  0  0  0  0  0  0  1  0  1  0  1  0  0  1  0  0  1  0  0  1  
0  0  0  0  0  0  0  0  0  0  1  0  1  0  0  0  1  1  0  0  0  1  0  0  0  
1  1  0  0  0  0  0  0  0  0  0  0  0  0  0  0  0  0  0  0  0  0  0  0  0  
0  0  0  0  0  0  0  0  0  0  0  0  0  0  0  0  0  0  0  0  0  1  0  0  0  
1  0  0  0  0  0  0  0  0  0  1  1  0  0  0  0  0  1  0  0  0  0  0  0  0  
0  0  0  1  1  0  0  0  1  0  0  0  0  0  0  0  0  0  0  0  0  1  0  0  0  
0  0  0  0  0  0  1  0  0  1  0  1  0  1  0  0  0  0  0  0  0  0  0  0  0  
0  0  0  0  0  0  0  0  1  1  0  0  0  1  0  0  0  0  0  1  0  0  0  0  0  
0  0  1  0  0  0  0  1  0  0  0  0  0  0  0  0  0  0  0  1  0  0  0  1  0  
0  0  0  1  0  0  1  0  0  1  0  0  0  0  0  0  0  0  0  1  0  0  0  1  0  
0  0  1  0  1  0  0  0  1  0  0  0  0  0  0  0  0  1  1  0  0  0  0  0  1  
0  0  1  0  0  0  0  0  0  0  0  0  0  0  0  0  0  0  0  0  0  0  0  0  0  
0  0  0  0  0  1  0  1  0  0  1  0  0  0  1  0  0  0  0  0  0  0  0  0  0  